NAME          
ROWS
 N  OBJ
 L  c1
 L  c2
COLUMNS
    MARKER    'MARKER'                 'INTORG'
    x[1]      c1        359
    x[1]      c2        116
    x[1]      OBJ       -402
    x[2]      c1        147
    x[2]      c2        269
    x[2]      OBJ       -23
    x[3]      c1        597
    x[3]      c2        998
    x[3]      OBJ       -996
    x[4]      c1        561
    x[4]      c2        731
    x[4]      OBJ       -344
    x[5]      c1        455
    x[5]      c2        446
    x[5]      OBJ       -720
    x[6]      c1        806
    x[6]      c2        603
    x[6]      OBJ       -109
    x[7]      c1        939
    x[7]      c2        898
    x[7]      OBJ       -29
    x[8]      c1        544
    x[8]      c2        648
    x[8]      OBJ       -640
    x[9]      c1        543
    x[9]      c2        682
    x[9]      OBJ       -955
    x[10]     c1        199
    x[10]     c2        97
    x[10]     OBJ       -144
    x[11]     c1        433
    x[11]     c2        130
    x[11]     OBJ       -757
    x[12]     c1        251
    x[12]     c2        282
    x[12]     OBJ       -749
    x[13]     c1        745
    x[13]     c2        739
    x[13]     OBJ       -230
    x[14]     c1        205
    x[14]     c2        79
    x[14]     OBJ       -762
    x[15]     c1        531
    x[15]     c2        946
    x[15]     OBJ       -838
    x[16]     c1        35
    x[16]     c2        432
    x[16]     OBJ       -37
    x[17]     c1        221
    x[17]     c2        168
    x[17]     OBJ       -459
    x[18]     c1        925
    x[18]     c2        189
    x[18]     OBJ       -260
    x[19]     c1        8
    x[19]     c2        246
    x[19]     OBJ       -859
    x[20]     c1        607
    x[20]     c2        881
    x[20]     OBJ       -107
    x[21]     c1        405
    x[21]     c2        950
    x[21]     OBJ       -583
    x[22]     c1        971
    x[22]     c2        302
    x[22]     OBJ       -286
    x[23]     c1        589
    x[23]     c2        349
    x[23]     OBJ       -417
    x[24]     c1        465
    x[24]     c2        103
    x[24]     OBJ       -962
    x[25]     c1        852
    x[25]     c2        171
    x[25]     OBJ       -483
RHS
    rhs       c1        6196
    rhs       c2        5728
RANGES
BOUNDS
 LO bounds    x[1]      0
 PL bounds    x[1]
 LO bounds    x[2]      0
 PL bounds    x[2]
 LO bounds    x[3]      0
 PL bounds    x[3]
 LO bounds    x[4]      0
 PL bounds    x[4]
 LO bounds    x[5]      0
 PL bounds    x[5]
 LO bounds    x[6]      0
 PL bounds    x[6]
 LO bounds    x[7]      0
 PL bounds    x[7]
 LO bounds    x[8]      0
 PL bounds    x[8]
 LO bounds    x[9]      0
 PL bounds    x[9]
 LO bounds    x[10]     0
 PL bounds    x[10]
 LO bounds    x[11]     0
 PL bounds    x[11]
 LO bounds    x[12]     0
 PL bounds    x[12]
 LO bounds    x[13]     0
 PL bounds    x[13]
 LO bounds    x[14]     0
 PL bounds    x[14]
 LO bounds    x[15]     0
 PL bounds    x[15]
 LO bounds    x[16]     0
 PL bounds    x[16]
 LO bounds    x[17]     0
 PL bounds    x[17]
 LO bounds    x[18]     0
 PL bounds    x[18]
 LO bounds    x[19]     0
 PL bounds    x[19]
 LO bounds    x[20]     0
 PL bounds    x[20]
 LO bounds    x[21]     0
 PL bounds    x[21]
 LO bounds    x[22]     0
 PL bounds    x[22]
 LO bounds    x[23]     0
 PL bounds    x[23]
 LO bounds    x[24]     0
 PL bounds    x[24]
 LO bounds    x[25]     0
 PL bounds    x[25]
ENDATA
